%Mem=30GB
%NProcShared=24
#P CAM-B3LYP/STO-3G Opt=Tight Int=UltraFine SCF(MaxCycle=512) 

#H2O_cmpd_6_spherical_shell_STO-3G

0   1
H  	 4.226155 	 7.529236 	 2.042465
O  	 4.612541 	 8.442900 	 1.846477
H  	 4.125261 	 8.753091 	 1.040055




