%Mem=30GB
%NProcShared=24
#P CAM-B3LYP/STO-3G Opt=Tight Int=UltraFine SCF(MaxCycle=512) 

#H2O_cmpd_3_spherical_shell_STO-3G

0   1
H  	 -2.776914 	 6.804939 	 7.774105
O  	 -3.187224 	 7.587176 	 7.358070
H  	 -2.722807 	 8.360819 	 7.688456




