%Mem=30GB
%NProcShared=24
#P CAM-B3LYP/STO-3G Opt=Tight Int=UltraFine SCF(MaxCycle=512) 

#H2O_cmpd_10_spherical_shell_STO-3G

0   1
H  	 3.714416 	 11.405206 	 7.409830
O  	 4.516517 	 11.964400 	 7.146271
H  	 5.322949 	 11.400240 	 7.267358




