%Mem=30GB
%NProcShared=24
#P CAM-B3LYP/STO-3G Opt=Tight Int=UltraFine SCF(MaxCycle=512) 

#H2O_cmpd_2_spherical_shell_STO-3G

0   1
H  	 -4.129188 	 6.300111 	 4.632462
O  	 -4.165155 	 5.344044 	 4.838699
H  	 -3.347496 	 4.953472 	 4.473008




