%Mem=30GB
%NProcShared=24
#P CAM-B3LYP/STO-3G Opt=Tight Int=UltraFine SCF(MaxCycle=512) 

#H2O_cmpd_8_spherical_shell_STO-3G

0   1
H  	 6.113218 	 10.431637 	 8.010249
O  	 6.192374 	 10.069613 	 8.888272
H  	 7.031638 	 9.561300 	 8.877406




