%Mem=30GB
%NProcShared=24
#P CAM-B3LYP/STO-3G Opt=Tight Int=UltraFine SCF(MaxCycle=512) 

#H2O_cmpd_5_spherical_shell_STO-3G

0   1
H  	 2.253427 	 8.389519 	 3.749129
O  	 1.859232 	 7.491743 	 3.767104
H  	 1.826492 	 7.224471 	 4.691643




