%Mem=45GB
%NProcShared=16
%chk=MOLECULE_NAME_CONFORMER_NUMBER.chk
#P FUNCTIONAL/BASIS_SET Opt=Tight Int=UltraFine SCF(MaxCycle=512)

#MOLECULE_NAME_CONFORMER_NUMBER

0   1
