%Mem=30GB
%NProcShared=24
#P CAM-B3LYP/STO-3G Opt=Tight Int=UltraFine SCF(MaxCycle=512) 

#H2O_cmpd_7_spherical_shell_STO-3G

0   1
H  	 3.586918 	 10.851642 	 5.090526
O  	 3.065061 	 10.083736 	 4.997403
H  	 3.423555 	 9.343564 	 5.543262




