%Mem=30GB
%NProcShared=24
#P CAM-B3LYP/STO-3G Opt=Tight Int=UltraFine SCF(MaxCycle=512) 

#H2O_cmpd_1_spherical_shell_STO-3G

0   1
H  	 -4.495393 	 2.800535 	 6.890324
O  	 -4.073390 	 3.216242 	 6.112334
H  	 -3.580272 	 2.486758 	 5.643694




