%Mem=30GB
%NProcShared=24
#P CAM-B3LYP/STO-3G Opt=Tight Int=UltraFine SCF(MaxCycle=512) 

#H2O_cmpd_9_spherical_shell_STO-3G

0   1
H  	 7.284692 	 11.215595 	 10.415236
O  	 7.710902 	 11.602097 	 11.238115
H  	 7.365638 	 11.116220 	 12.023518




