%Mem=30GB
%NProcShared=24
#P CAM-B3LYP/STO-3G Opt=Tight Int=UltraFine SCF(MaxCycle=512) 

#H2O_cmpd_4_spherical_shell_STO-3G

0   1
H  	 -0.167219 	 7.609196 	 6.143741
O  	 -0.920009 	 7.459914 	 6.713490
H  	 -1.177195 	 8.296841 	 7.093429




